Route #1: 50 27 41 29 62 38 11 34 12 14 57 17 52 59 46 54 45 7
Route #2: 60 5 23 6 15 20
Route #3: 25 61 49 36 16 37 56
Route #4: 
Route #5: 8 2 26 3 40 58 43 24 64 21
Route #6: 18 35 28 47 42 9 55 39 22 44 53 63
Route #7: 1 33 51 13 48 30 19 4 10 32 31
Route #8: 
Route #9: 
cost 1029.3494678026577
